texs 16
0.002863 0.111315
0.442985 0.111315
0.441261 0.551576
0.001139 0.551576
0.442985 0.550501
0.442985 0.111315
0.887894 0.111315
0.887894 0.550501
0.442985 0.550501
0.442985 0.111315
0.887894 0.111315
0.887894 0.550501
0.442985 0.550501
0.442985 0.111315
0.887894 0.111315
0.887894 0.550501
tris 8
0 1 2
2 3 0
4 5 6
6 7 4
8 9 10
10 11 8
12 13 14
14 15 12
numframes 1
frame 0
-5.000000 10.000000 5.000000
5.000000 10.000000 5.000000
5.000000 10.000000 -5.000000
-5.000000 10.000000 -5.000000
-5.000000 0.000000 5.000000
5.000000 0.000000 5.000000
5.000000 10.000000 5.000000
-5.000000 10.000000 5.000000
5.000000 0.000000 5.000000
5.000000 0.000000 -5.000000
5.000000 10.000000 -5.000000
5.000000 10.000000 5.000000
-5.000000 0.000000 -5.000000
-5.000000 0.000000 5.000000
-5.000000 10.000000 5.000000
-5.000000 10.000000 -5.000000
